
c--------------------------------------------------------------
c	Ferhat Erata
c	CPSC 454/554
c	Tue Nov 26 2019	21:16:52
c--------------------------------------------------------------
s SATISFIABLE
c model: -1 -2 -3 -4 -5 -6 -7 -8 9 -10 -11 -12 -13 -14 -15 -16 -17 -18 -19 -20 -21 -22 -23 -24 -25 -26 -27 -28 -29 -30 -31 -32 -33 -34 -35 -36 -37 -38 -39 -40 
c--------------------------------------------------------------
c statistics of ../../bench1/sat/40-60.cnf:
c [ mem_used: 1856, conflicts: 0, max_lemmas: 2000 ]
c--------------------------------------------------------------
c	Normal termination.
